p cnf 635 1756
1 3 51 0
-1 3 -51 0
1 -3 -51 0
-1 -3 51 0
7 -9 52 0
-7 -9 -52 0
7 9 -52 0
-7 9 52 0
-10 -11 53 0
10 -11 -53 0
-10 11 -53 0
10 11 53 0
12 16 54 0
-12 16 -54 0
12 -16 -54 0
-12 -16 54 0
17 -18 55 0
-17 -18 -55 0
17 18 -55 0
-17 18 55 0
-19 20 56 0
19 20 -56 0
-19 -20 -56 0
19 -20 56 0
21 -26 57 0
-21 -26 -57 0
21 26 -57 0
-21 26 57 0
-27 29 58 0
27 29 -58 0
-27 -29 -58 0
27 -29 58 0
31 -33 59 0
-31 -33 -59 0
31 33 -59 0
-31 33 59 0
-34 -35 60 0
34 -35 -60 0
-34 35 -60 0
34 35 60 0
36 -37 61 0
-36 -37 -61 0
36 37 -61 0
-36 37 61 0
38 -39 62 0
-38 -39 -62 0
38 39 -62 0
-38 39 62 0
43 -45 63 0
-43 -45 -63 0
43 45 -63 0
-43 45 63 0
50 -51 64 0
-50 -51 -64 0
50 51 -64 0
-50 51 64 0
52 -53 65 0
-52 -53 -65 0
52 53 -65 0
-52 53 65 0
54 -55 66 0
-54 -55 -66 0
54 55 -66 0
-54 55 66 0
56 -57 67 0
-56 -57 -67 0
56 57 -67 0
-56 57 67 0
58 -59 68 0
-58 -59 -68 0
58 59 -68 0
-58 59 68 0
60 -61 69 0
-60 -61 -69 0
60 61 -69 0
-60 61 69 0
62 -63 70 0
-62 -63 -70 0
62 63 -70 0
-62 63 70 0
64 -65 71 0
-64 -65 -71 0
64 65 -71 0
-64 65 71 0
66 -67 72 0
-66 -67 -72 0
66 67 -72 0
-66 67 72 0
68 -69 73 0
-68 -69 -73 0
68 69 -73 0
-68 69 73 0
70 -71 74 0
-70 -71 -74 0
70 71 -74 0
-70 71 74 0
72 -73 75 0
-72 -73 -75 0
72 73 -75 0
-72 73 75 0
74 75 0
-74 -75 0
2 -3 76 0
-2 -3 -76 0
2 3 -76 0
-2 3 76 0
-5 -7 77 0
5 -7 -77 0
-5 7 -77 0
5 7 77 0
-11 -12 78 0
11 -12 -78 0
-11 12 -78 0
11 12 78 0
14 15 79 0
-14 15 -79 0
14 -15 -79 0
-14 -15 79 0
17 18 80 0
-17 18 -80 0
17 -18 -80 0
-17 -18 80 0
21 22 81 0
-21 22 -81 0
21 -22 -81 0
-21 -22 81 0
-26 -28 82 0
26 -28 -82 0
-26 28 -82 0
26 28 82 0
-31 32 83 0
31 32 -83 0
-31 -32 -83 0
31 -32 83 0
36 -40 84 0
-36 -40 -84 0
36 40 -84 0
-36 40 84 0
41 -42 85 0
-41 -42 -85 0
41 42 -85 0
-41 42 85 0
43 -44 86 0
-43 -44 -86 0
43 44 -86 0
-43 44 86 0
-45 46 87 0
45 46 -87 0
-45 -46 -87 0
45 -46 87 0
-48 50 88 0
48 50 -88 0
-48 -50 -88 0
48 -50 88 0
76 -77 89 0
-76 -77 -89 0
76 77 -89 0
-76 77 89 0
78 -79 90 0
-78 -79 -90 0
78 79 -90 0
-78 79 90 0
80 -81 91 0
-80 -81 -91 0
80 81 -91 0
-80 81 91 0
82 -83 92 0
-82 -83 -92 0
82 83 -92 0
-82 83 92 0
84 -85 93 0
-84 -85 -93 0
84 85 -93 0
-84 85 93 0
86 -87 94 0
-86 -87 -94 0
86 87 -94 0
-86 87 94 0
88 -89 95 0
-88 -89 -95 0
88 89 -95 0
-88 89 95 0
90 -91 96 0
-90 -91 -96 0
90 91 -96 0
-90 91 96 0
92 -93 97 0
-92 -93 -97 0
92 93 -97 0
-92 93 97 0
94 -95 98 0
-94 -95 -98 0
94 95 -98 0
-94 95 98 0
96 -97 99 0
-96 -97 -99 0
96 97 -99 0
-96 97 99 0
98 99 0
-98 -99 0
3 4 100 0
-3 4 -100 0
3 -4 -100 0
-3 -4 100 0
6 7 101 0
-6 7 -101 0
6 -7 -101 0
-6 -7 101 0
-10 11 102 0
10 11 -102 0
-10 -11 -102 0
10 -11 102 0
-13 -14 103 0
13 -14 -103 0
-13 14 -103 0
13 14 103 0
-15 -17 104 0
15 -17 -104 0
-15 17 -104 0
15 17 104 0
18 22 105 0
-18 22 -105 0
18 -22 -105 0
-18 -22 105 0
-23 -25 106 0
23 -25 -106 0
-23 25 -106 0
23 25 106 0
29 -30 107 0
-29 -30 -107 0
29 30 -107 0
-29 30 107 0
-31 -36 108 0
31 -36 -108 0
-31 36 -108 0
31 36 108 0
-37 -38 109 0
37 -38 -109 0
-37 38 -109 0
37 38 109 0
39 -40 110 0
-39 -40 -110 0
39 40 -110 0
-39 40 110 0
41 -42 111 0
-41 -42 -111 0
41 42 -111 0
-41 42 111 0
47 -49 112 0
-47 -49 -112 0
47 49 -112 0
-47 49 112 0
100 -101 113 0
-100 -101 -113 0
100 101 -113 0
-100 101 113 0
102 -103 114 0
-102 -103 -114 0
102 103 -114 0
-102 103 114 0
104 -105 115 0
-104 -105 -115 0
104 105 -115 0
-104 105 115 0
106 -107 116 0
-106 -107 -116 0
106 107 -116 0
-106 107 116 0
108 -109 117 0
-108 -109 -117 0
108 109 -117 0
-108 109 117 0
110 -111 118 0
-110 -111 -118 0
110 111 -118 0
-110 111 118 0
112 -113 119 0
-112 -113 -119 0
112 113 -119 0
-112 113 119 0
114 -115 120 0
-114 -115 -120 0
114 115 -120 0
-114 115 120 0
116 -117 121 0
-116 -117 -121 0
116 117 -121 0
-116 117 121 0
118 -119 122 0
-118 -119 -122 0
118 119 -122 0
-118 119 122 0
120 -121 123 0
-120 -121 -123 0
120 121 -123 0
-120 121 123 0
122 123 0
-122 -123 0
1 -2 124 0
-1 -2 -124 0
1 2 -124 0
-1 2 124 0
4 -7 125 0
-4 -7 -125 0
4 7 -125 0
-4 7 125 0
-8 10 126 0
8 10 -126 0
-8 -10 -126 0
8 -10 126 0
12 -13 127 0
-12 -13 -127 0
12 13 -127 0
-12 13 127 0
-14 16 128 0
14 16 -128 0
-14 -16 -128 0
14 -16 128 0
17 -18 129 0
-17 -18 -129 0
17 18 -129 0
-17 18 129 0
19 -21 130 0
-19 -21 -130 0
19 21 -130 0
-19 21 130 0
23 -27 131 0
-23 -27 -131 0
23 27 -131 0
-23 27 131 0
-29 30 132 0
29 30 -132 0
-29 -30 -132 0
29 -30 132 0
31 -32 133 0
-31 -32 -133 0
31 32 -133 0
-31 32 133 0
34 -35 134 0
-34 -35 -134 0
34 35 -134 0
-34 35 134 0
36 37 135 0
-36 37 -135 0
36 -37 -135 0
-36 -37 135 0
-39 40 136 0
39 40 -136 0
-39 -40 -136 0
39 -40 136 0
-42 -46 137 0
42 -46 -137 0
-42 46 -137 0
42 46 137 0
48 -49 138 0
-48 -49 -138 0
48 49 -138 0
-48 49 138 0
123 -124 139 0
-123 -124 -139 0
123 124 -139 0
-123 124 139 0
125 -126 140 0
-125 -126 -140 0
125 126 -140 0
-125 126 140 0
127 -128 141 0
-127 -128 -141 0
127 128 -141 0
-127 128 141 0
129 -130 142 0
-129 -130 -142 0
129 130 -142 0
-129 130 142 0
131 -132 143 0
-131 -132 -143 0
131 132 -143 0
-131 132 143 0
133 -134 144 0
-133 -134 -144 0
133 134 -144 0
-133 134 144 0
135 -136 145 0
-135 -136 -145 0
135 136 -145 0
-135 136 145 0
137 -138 146 0
-137 -138 -146 0
137 138 -146 0
-137 138 146 0
139 -140 147 0
-139 -140 -147 0
139 140 -147 0
-139 140 147 0
141 -142 148 0
-141 -142 -148 0
141 142 -148 0
-141 142 148 0
143 -144 149 0
-143 -144 -149 0
143 144 -149 0
-143 144 149 0
145 -146 150 0
-145 -146 -150 0
145 146 -150 0
-145 146 150 0
147 -148 151 0
-147 -148 -151 0
147 148 -151 0
-147 148 151 0
149 -150 152 0
-149 -150 -152 0
149 150 -152 0
-149 150 152 0
151 152 0
-151 -152 0
1 -3 153 0
-1 -3 -153 0
1 3 -153 0
-1 3 153 0
4 -5 154 0
-4 -5 -154 0
4 5 -154 0
-4 5 154 0
-6 -8 155 0
6 -8 -155 0
-6 8 -155 0
6 8 155 0
-11 -13 156 0
11 -13 -156 0
-11 13 -156 0
11 13 156 0
14 16 157 0
-14 16 -157 0
14 -16 -157 0
-14 -16 157 0
21 22 158 0
-21 22 -158 0
21 -22 -158 0
-21 -22 158 0
23 -24 159 0
-23 -24 -159 0
23 24 -159 0
-23 24 159 0
-25 27 160 0
25 27 -160 0
-25 -27 -160 0
25 -27 160 0
-29 -32 161 0
29 -32 -161 0
-29 32 -161 0
29 32 161 0
34 -35 162 0
-34 -35 -162 0
34 35 -162 0
-34 35 162 0
-36 39 163 0
36 39 -163 0
-36 -39 -163 0
36 -39 163 0
40 -41 164 0
-40 -41 -164 0
40 41 -164 0
-40 41 164 0
-42 -43 165 0
42 -43 -165 0
-42 43 -165 0
42 43 165 0
-44 45 166 0
44 45 -166 0
-44 -45 -166 0
44 -45 166 0
-46 50 167 0
46 50 -167 0
-46 -50 -167 0
46 -50 167 0
153 -154 168 0
-153 -154 -168 0
153 154 -168 0
-153 154 168 0
155 -156 169 0
-155 -156 -169 0
155 156 -169 0
-155 156 169 0
157 -158 170 0
-157 -158 -170 0
157 158 -170 0
-157 158 170 0
159 -160 171 0
-159 -160 -171 0
159 160 -171 0
-159 160 171 0
161 -162 172 0
-161 -162 -172 0
161 162 -172 0
-161 162 172 0
163 -164 173 0
-163 -164 -173 0
163 164 -173 0
-163 164 173 0
165 -166 174 0
-165 -166 -174 0
165 166 -174 0
-165 166 174 0
167 -168 175 0
-167 -168 -175 0
167 168 -175 0
-167 168 175 0
169 -170 176 0
-169 -170 -176 0
169 170 -176 0
-169 170 176 0
171 -172 177 0
-171 -172 -177 0
171 172 -177 0
-171 172 177 0
173 -174 178 0
-173 -174 -178 0
173 174 -178 0
-173 174 178 0
175 -176 179 0
-175 -176 -179 0
175 176 -179 0
-175 176 179 0
177 -178 180 0
-177 -178 -180 0
177 178 -180 0
-177 178 180 0
179 180 0
-179 -180 0
3 -4 181 0
-3 -4 -181 0
3 4 -181 0
-3 4 181 0
6 -11 182 0
-6 -11 -182 0
6 11 -182 0
-6 11 182 0
-12 14 183 0
12 14 -183 0
-12 -14 -183 0
12 -14 183 0
15 -17 184 0
-15 -17 -184 0
15 17 -184 0
-15 17 184 0
-18 20 185 0
18 20 -185 0
-18 -20 -185 0
18 -20 185 0
22 -27 186 0
-22 -27 -186 0
22 27 -186 0
-22 27 186 0
28 -31 187 0
-28 -31 -187 0
28 31 -187 0
-28 31 187 0
32 33 188 0
-32 33 -188 0
32 -33 -188 0
-32 -33 188 0
34 35 189 0
-34 35 -189 0
34 -35 -189 0
-34 -35 189 0
-36 -37 190 0
36 -37 -190 0
-36 37 -190 0
36 37 190 0
-39 46 191 0
39 46 -191 0
-39 -46 -191 0
39 -46 191 0
-47 -50 192 0
47 -50 -192 0
-47 50 -192 0
47 50 192 0
181 -182 193 0
-181 -182 -193 0
181 182 -193 0
-181 182 193 0
183 -184 194 0
-183 -184 -194 0
183 184 -194 0
-183 184 194 0
185 -186 195 0
-185 -186 -195 0
185 186 -195 0
-185 186 195 0
187 -188 196 0
-187 -188 -196 0
187 188 -196 0
-187 188 196 0
189 -190 197 0
-189 -190 -197 0
189 190 -197 0
-189 190 197 0
191 -192 198 0
-191 -192 -198 0
191 192 -198 0
-191 192 198 0
193 -194 199 0
-193 -194 -199 0
193 194 -199 0
-193 194 199 0
195 -196 200 0
-195 -196 -200 0
195 196 -200 0
-195 196 200 0
197 -198 201 0
-197 -198 -201 0
197 198 -201 0
-197 198 201 0
-199 -200 201 0
199 -200 -201 0
-199 200 -201 0
199 200 201 0
-2 -3 202 0
2 -3 -202 0
-2 3 -202 0
2 3 202 0
6 -7 203 0
-6 -7 -203 0
6 7 -203 0
-6 7 203 0
10 11 204 0
-10 11 -204 0
10 -11 -204 0
-10 -11 204 0
-13 15 205 0
13 15 -205 0
-13 -15 -205 0
13 -15 205 0
17 -18 206 0
-17 -18 -206 0
17 18 -206 0
-17 18 206 0
-19 -20 207 0
19 -20 -207 0
-19 20 -207 0
19 20 207 0
24 25 208 0
-24 25 -208 0
24 -25 -208 0
-24 -25 208 0
-27 28 209 0
27 28 -209 0
-27 -28 -209 0
27 -28 209 0
29 30 210 0
-29 30 -210 0
29 -30 -210 0
-29 -30 210 0
-33 34 211 0
33 34 -211 0
-33 -34 -211 0
33 -34 211 0
41 43 212 0
-41 43 -212 0
41 -43 -212 0
-41 -43 212 0
44 -45 213 0
-44 -45 -213 0
44 45 -213 0
-44 45 213 0
46 -47 214 0
-46 -47 -214 0
46 47 -214 0
-46 47 214 0
48 49 215 0
-48 49 -215 0
48 -49 -215 0
-48 -49 215 0
202 -203 216 0
-202 -203 -216 0
202 203 -216 0
-202 203 216 0
204 -205 217 0
-204 -205 -217 0
204 205 -217 0
-204 205 217 0
206 -207 218 0
-206 -207 -218 0
206 207 -218 0
-206 207 218 0
208 -209 219 0
-208 -209 -219 0
208 209 -219 0
-208 209 219 0
210 -211 220 0
-210 -211 -220 0
210 211 -220 0
-210 211 220 0
212 -213 221 0
-212 -213 -221 0
212 213 -221 0
-212 213 221 0
214 -215 222 0
-214 -215 -222 0
214 215 -222 0
-214 215 222 0
216 -217 223 0
-216 -217 -223 0
216 217 -223 0
-216 217 223 0
218 -219 224 0
-218 -219 -224 0
218 219 -224 0
-218 219 224 0
220 -221 225 0
-220 -221 -225 0
220 221 -225 0
-220 221 225 0
222 -223 226 0
-222 -223 -226 0
222 223 -226 0
-222 223 226 0
224 -225 227 0
-224 -225 -227 0
224 225 -227 0
-224 225 227 0
226 227 0
-226 -227 0
1 -2 228 0
-1 -2 -228 0
1 2 -228 0
-1 2 228 0
-5 7 229 0
5 7 -229 0
-5 -7 -229 0
5 -7 229 0
12 -16 230 0
-12 -16 -230 0
12 16 -230 0
-12 16 230 0
18 -19 231 0
-18 -19 -231 0
18 19 -231 0
-18 19 231 0
20 -21 232 0
-20 -21 -232 0
20 21 -232 0
-20 21 232 0
-22 23 233 0
22 23 -233 0
-22 -23 -233 0
22 -23 233 0
-25 -31 234 0
25 -31 -234 0
-25 31 -234 0
25 31 234 0
-33 34 235 0
33 34 -235 0
-33 -34 -235 0
33 -34 235 0
-37 38 236 0
37 38 -236 0
-37 -38 -236 0
37 -38 236 0
-39 40 237 0
39 40 -237 0
-39 -40 -237 0
39 -40 237 0
-41 -43 238 0
41 -43 -238 0
-41 43 -238 0
41 43 238 0
44 -46 239 0
-44 -46 -239 0
44 46 -239 0
-44 46 239 0
227 -228 240 0
-227 -228 -240 0
227 228 -240 0
-227 228 240 0
229 -230 241 0
-229 -230 -241 0
229 230 -241 0
-229 230 241 0
231 -232 242 0
-231 -232 -242 0
231 232 -242 0
-231 232 242 0
233 -234 243 0
-233 -234 -243 0
233 234 -243 0
-233 234 243 0
235 -236 244 0
-235 -236 -244 0
235 236 -244 0
-235 236 244 0
237 -238 245 0
-237 -238 -245 0
237 238 -245 0
-237 238 245 0
239 -240 246 0
-239 -240 -246 0
239 240 -246 0
-239 240 246 0
241 -242 247 0
-241 -242 -247 0
241 242 -247 0
-241 242 247 0
243 -244 248 0
-243 -244 -248 0
243 244 -248 0
-243 244 248 0
245 -246 249 0
-245 -246 -249 0
245 246 -249 0
-245 246 249 0
247 -248 250 0
-247 -248 -250 0
247 248 -250 0
-247 248 250 0
249 250 0
-249 -250 0
-1 3 251 0
1 3 -251 0
-1 -3 -251 0
1 -3 251 0
-5 -7 252 0
5 -7 -252 0
-5 7 -252 0
5 7 252 0
8 -9 253 0
-8 -9 -253 0
8 9 -253 0
-8 9 253 0
-10 -13 254 0
10 -13 -254 0
-10 13 -254 0
10 13 254 0
-14 -18 255 0
14 -18 -255 0
-14 18 -255 0
14 18 255 0
20 23 256 0
-20 23 -256 0
20 -23 -256 0
-20 -23 256 0
25 -26 257 0
-25 -26 -257 0
25 26 -257 0
-25 26 257 0
-27 28 258 0
27 28 -258 0
-27 -28 -258 0
27 -28 258 0
-33 -36 259 0
33 -36 -259 0
-33 36 -259 0
33 36 259 0
-37 38 260 0
37 38 -260 0
-37 -38 -260 0
37 -38 260 0
39 -40 261 0
-39 -40 -261 0
39 40 -261 0
-39 40 261 0
-42 44 262 0
42 44 -262 0
-42 -44 -262 0
42 -44 262 0
-45 -48 263 0
45 -48 -263 0
-45 48 -263 0
45 48 263 0
250 -251 264 0
-250 -251 -264 0
250 251 -264 0
-250 251 264 0
252 -253 265 0
-252 -253 -265 0
252 253 -265 0
-252 253 265 0
254 -255 266 0
-254 -255 -266 0
254 255 -266 0
-254 255 266 0
256 -257 267 0
-256 -257 -267 0
256 257 -267 0
-256 257 267 0
258 -259 268 0
-258 -259 -268 0
258 259 -268 0
-258 259 268 0
260 -261 269 0
-260 -261 -269 0
260 261 -269 0
-260 261 269 0
262 -263 270 0
-262 -263 -270 0
262 263 -270 0
-262 263 270 0
264 -265 271 0
-264 -265 -271 0
264 265 -271 0
-264 265 271 0
266 -267 272 0
-266 -267 -272 0
266 267 -272 0
-266 267 272 0
268 -269 273 0
-268 -269 -273 0
268 269 -273 0
-268 269 273 0
270 -271 274 0
-270 -271 -274 0
270 271 -274 0
-270 271 274 0
272 -273 275 0
-272 -273 -275 0
272 273 -275 0
-272 273 275 0
274 275 0
-274 -275 0
2 4 276 0
-2 4 -276 0
2 -4 -276 0
-2 -4 276 0
6 10 277 0
-6 10 -277 0
6 -10 -277 0
-6 -10 277 0
-12 -13 278 0
12 -13 -278 0
-12 13 -278 0
12 13 278 0
-16 21 279 0
16 21 -279 0
-16 -21 -279 0
16 -21 279 0
-22 23 280 0
22 23 -280 0
-22 -23 -280 0
22 -23 280 0
24 -27 281 0
-24 -27 -281 0
24 27 -281 0
-24 27 281 0
29 30 282 0
-29 30 -282 0
29 -30 -282 0
-29 -30 282 0
-32 33 283 0
32 33 -283 0
-32 -33 -283 0
32 -33 283 0
35 41 284 0
-35 41 -284 0
35 -41 -284 0
-35 -41 284 0
42 44 285 0
-42 44 -285 0
42 -44 -285 0
-42 -44 285 0
45 47 286 0
-45 47 -286 0
45 -47 -286 0
-45 -47 286 0
276 -277 287 0
-276 -277 -287 0
276 277 -287 0
-276 277 287 0
278 -279 288 0
-278 -279 -288 0
278 279 -288 0
-278 279 288 0
280 -281 289 0
-280 -281 -289 0
280 281 -289 0
-280 281 289 0
282 -283 290 0
-282 -283 -290 0
282 283 -290 0
-282 283 290 0
284 -285 291 0
-284 -285 -291 0
284 285 -291 0
-284 285 291 0
286 -287 292 0
-286 -287 -292 0
286 287 -292 0
-286 287 292 0
288 -289 293 0
-288 -289 -293 0
288 289 -293 0
-288 289 293 0
290 -291 294 0
-290 -291 -294 0
290 291 -294 0
-290 291 294 0
-292 -293 294 0
292 -293 -294 0
-292 293 -294 0
292 293 294 0
-12 295 0
-24 295 0
-12 -24 296 0
-23 295 0
-12 -23 296 0
-24 -23 296 0
-12 -24 -23 297 0
-22 298 0
-21 298 0
-22 -21 299 0
-20 298 0
-22 -20 299 0
-21 -20 299 0
-22 -21 -20 300 0
-295 301 0
-296 302 0
-297 303 0
-298 301 0
-299 302 0
-300 303 0
-295 -298 302 0
-295 -299 303 0
-295 -300 304 0
-296 -298 303 0
-296 -299 304 0
-296 -300 305 0
-297 -298 304 0
-297 -299 305 0
-297 -300 306 0
-19 307 0
-18 307 0
-19 -18 308 0
-17 307 0
-19 -17 308 0
-18 -17 308 0
-19 -18 -17 309 0
-16 310 0
-15 310 0
-16 -15 311 0
-14 310 0
-16 -14 311 0
-15 -14 311 0
-16 -15 -14 312 0
-307 313 0
-308 314 0
-309 315 0
-310 313 0
-311 314 0
-312 315 0
-307 -310 314 0
-307 -311 315 0
-307 -312 316 0
-308 -310 315 0
-308 -311 316 0
-308 -312 317 0
-309 -310 316 0
-309 -311 317 0
-309 -312 318 0
-301 319 0
-303 320 0
-305 321 0
-313 319 0
-315 320 0
-317 321 0
-301 -313 320 0
-301 -315 321 0
-301 -317 322 0
-303 -313 321 0
-303 -315 322 0
-303 -317 323 0
-305 -313 322 0
-305 -315 323 0
-305 -317 324 0
-302 325 0
-304 326 0
-306 327 0
-314 325 0
-316 326 0
-318 327 0
-302 -314 326 0
-302 -316 327 0
-302 -318 328 0
-304 -314 327 0
-304 -316 328 0
-304 -318 329 0
-306 -314 328 0
-306 -316 329 0
-306 -318 330 0
-320 331 0
-325 331 0
-320 -325 332 0
-321 333 0
-326 333 0
-321 -326 334 0
-322 335 0
-327 335 0
-322 -327 336 0
-323 337 0
-328 337 0
-323 -328 338 0
-324 339 0
-329 339 0
-324 -329 340 0
-13 341 0
-25 341 0
-13 -25 342 0
-11 341 0
-13 -11 342 0
-25 -11 342 0
-13 -25 -11 343 0
-10 344 0
-9 344 0
-10 -9 345 0
-8 344 0
-10 -8 345 0
-9 -8 345 0
-10 -9 -8 346 0
-341 347 0
-342 348 0
-343 349 0
-344 347 0
-345 348 0
-346 349 0
-341 -344 348 0
-341 -345 349 0
-341 -346 350 0
-342 -344 349 0
-342 -345 350 0
-342 -346 351 0
-343 -344 350 0
-343 -345 351 0
-343 -346 352 0
-7 353 0
-6 353 0
-7 -6 354 0
-5 353 0
-7 -5 354 0
-6 -5 354 0
-7 -6 -5 355 0
-4 356 0
-3 356 0
-4 -3 357 0
-2 356 0
-4 -2 357 0
-3 -2 357 0
-4 -3 -2 358 0
-353 359 0
-354 360 0
-355 361 0
-356 359 0
-357 360 0
-358 361 0
-353 -356 360 0
-353 -357 361 0
-353 -358 362 0
-354 -356 361 0
-354 -357 362 0
-354 -358 363 0
-355 -356 362 0
-355 -357 363 0
-355 -358 364 0
-347 365 0
-349 366 0
-351 367 0
-359 365 0
-361 366 0
-363 367 0
-347 -359 366 0
-347 -361 367 0
-347 -363 368 0
-349 -359 367 0
-349 -361 368 0
-349 -363 369 0
-351 -359 368 0
-351 -361 369 0
-351 -363 370 0
-348 371 0
-350 372 0
-352 373 0
-360 371 0
-362 372 0
-364 373 0
-348 -360 372 0
-348 -362 373 0
-348 -364 374 0
-350 -360 373 0
-350 -362 374 0
-350 -364 375 0
-352 -360 374 0
-352 -362 375 0
-352 -364 376 0
-366 377 0
-371 377 0
-366 -371 378 0
-367 379 0
-372 379 0
-367 -372 380 0
-368 381 0
-373 381 0
-368 -373 382 0
-369 383 0
-374 383 0
-369 -374 384 0
-370 385 0
-375 385 0
-370 -375 386 0
-1 387 0
-37 387 0
-1 -37 388 0
-49 387 0
-1 -49 388 0
-37 -49 388 0
-1 -37 -49 389 0
-48 390 0
-47 390 0
-48 -47 391 0
-46 390 0
-48 -46 391 0
-47 -46 391 0
-48 -47 -46 392 0
-387 393 0
-388 394 0
-389 395 0
-390 393 0
-391 394 0
-392 395 0
-387 -390 394 0
-387 -391 395 0
-387 -392 396 0
-388 -390 395 0
-388 -391 396 0
-388 -392 397 0
-389 -390 396 0
-389 -391 397 0
-389 -392 398 0
-45 399 0
-44 399 0
-45 -44 400 0
-43 399 0
-45 -43 400 0
-44 -43 400 0
-45 -44 -43 401 0
-42 402 0
-41 402 0
-42 -41 403 0
-40 402 0
-42 -40 403 0
-41 -40 403 0
-42 -41 -40 404 0
-399 405 0
-400 406 0
-401 407 0
-402 405 0
-403 406 0
-404 407 0
-399 -402 406 0
-399 -403 407 0
-399 -404 408 0
-400 -402 407 0
-400 -403 408 0
-400 -404 409 0
-401 -402 408 0
-401 -403 409 0
-401 -404 410 0
-393 411 0
-395 412 0
-397 413 0
-405 411 0
-407 412 0
-409 413 0
-393 -405 412 0
-393 -407 413 0
-393 -409 414 0
-395 -405 413 0
-395 -407 414 0
-395 -409 415 0
-397 -405 414 0
-397 -407 415 0
-397 -409 416 0
-394 417 0
-396 418 0
-398 419 0
-406 417 0
-408 418 0
-410 419 0
-394 -406 418 0
-394 -408 419 0
-394 -410 420 0
-396 -406 419 0
-396 -408 420 0
-396 -410 421 0
-398 -406 420 0
-398 -408 421 0
-398 -410 422 0
-412 423 0
-417 423 0
-412 -417 424 0
-413 425 0
-418 425 0
-413 -418 426 0
-414 427 0
-419 427 0
-414 -419 428 0
-415 429 0
-420 429 0
-415 -420 430 0
-416 431 0
-421 431 0
-416 -421 432 0
-39 433 0
-38 433 0
-39 -38 434 0
-50 433 0
-39 -50 434 0
-38 -50 434 0
-39 -38 -50 435 0
-36 436 0
-35 436 0
-36 -35 437 0
-34 436 0
-36 -34 437 0
-35 -34 437 0
-36 -35 -34 438 0
-433 439 0
-434 440 0
-435 441 0
-436 439 0
-437 440 0
-438 441 0
-433 -436 440 0
-433 -437 441 0
-433 -438 442 0
-434 -436 441 0
-434 -437 442 0
-434 -438 443 0
-435 -436 442 0
-435 -437 443 0
-435 -438 444 0
-33 445 0
-32 445 0
-33 -32 446 0
-31 445 0
-33 -31 446 0
-32 -31 446 0
-33 -32 -31 447 0
-30 448 0
-29 448 0
-30 -29 449 0
-28 450 0
-27 450 0
-28 -27 451 0
-26 450 0
-28 -26 451 0
-27 -26 451 0
-28 -27 -26 452 0
-448 453 0
-449 454 0
-450 453 0
-451 454 0
-452 455 0
-448 -450 454 0
-448 -451 455 0
-448 -452 456 0
-449 -450 455 0
-449 -451 456 0
-449 -452 457 0
-445 458 0
-446 459 0
-447 460 0
-453 458 0
-454 459 0
-455 460 0
-456 461 0
-457 462 0
-445 -453 459 0
-445 -454 460 0
-445 -455 461 0
-445 -456 462 0
-445 -457 463 0
-446 -453 460 0
-446 -454 461 0
-446 -455 462 0
-446 -456 463 0
-446 -457 464 0
-447 -453 461 0
-447 -454 462 0
-447 -455 463 0
-447 -456 464 0
-447 -457 465 0
-439 466 0
-441 467 0
-443 468 0
-458 466 0
-460 467 0
-462 468 0
-464 469 0
-439 -458 467 0
-439 -460 468 0
-439 -462 469 0
-439 -464 470 0
-441 -458 468 0
-441 -460 469 0
-441 -462 470 0
-441 -464 471 0
-443 -458 469 0
-443 -460 470 0
-443 -462 471 0
-443 -464 472 0
-440 473 0
-442 474 0
-444 475 0
-459 473 0
-461 474 0
-463 475 0
-465 476 0
-440 -459 474 0
-440 -461 475 0
-440 -463 476 0
-440 -465 477 0
-442 -459 475 0
-442 -461 476 0
-442 -463 477 0
-442 -465 478 0
-444 -459 476 0
-444 -461 477 0
-444 -463 478 0
-444 -465 479 0
-467 480 0
-473 480 0
-467 -473 481 0
-468 482 0
-474 482 0
-468 -474 483 0
-469 484 0
-475 484 0
-469 -475 485 0
-470 486 0
-476 486 0
-470 -476 487 0
-471 488 0
-477 488 0
-471 -477 489 0
-472 490 0
-478 490 0
-472 -478 491 0
-411 492 0
-426 493 0
-430 494 0
-466 492 0
-483 493 0
-487 494 0
-491 495 0
-411 -466 493 0
-411 -483 494 0
-411 -487 495 0
-411 -491 496 0
-426 -466 494 0
-426 -483 495 0
-426 -487 496 0
-430 -466 495 0
-430 -483 496 0
-424 497 0
-428 498 0
-432 499 0
-481 497 0
-485 498 0
-489 499 0
-424 -481 498 0
-424 -485 499 0
-424 -489 500 0
-428 -481 499 0
-428 -485 500 0
-432 -481 500 0
-493 501 0
-497 501 0
-493 -497 502 0
-494 503 0
-498 503 0
-494 -498 504 0
-495 505 0
-499 505 0
-495 -499 506 0
-496 507 0
-500 507 0
-496 -500 508 0
-423 509 0
-427 510 0
-431 511 0
-480 509 0
-484 510 0
-488 511 0
-479 512 0
-423 -480 510 0
-423 -484 511 0
-423 -488 512 0
-423 -479 513 0
-427 -480 511 0
-427 -484 512 0
-427 -488 513 0
-431 -480 512 0
-431 -484 513 0
-425 514 0
-429 515 0
-422 516 0
-482 514 0
-486 515 0
-490 516 0
-425 -482 515 0
-425 -486 516 0
-425 -490 517 0
-429 -482 516 0
-429 -486 517 0
-422 -482 517 0
-510 518 0
-514 518 0
-510 -514 519 0
-511 520 0
-515 520 0
-511 -515 521 0
-512 522 0
-516 522 0
-512 -516 523 0
-513 524 0
-517 524 0
-501 525 0
-509 525 0
-501 -509 526 0
-502 527 0
-518 527 0
-502 -518 528 0
-503 529 0
-519 529 0
-503 -519 530 0
-504 531 0
-520 531 0
-504 -520 532 0
-505 533 0
-521 533 0
-505 -521 534 0
-506 535 0
-522 535 0
-506 -522 536 0
-507 537 0
-523 537 0
-507 -523 538 0
-508 539 0
-524 539 0
-365 540 0
-380 541 0
-384 542 0
-492 540 0
-528 541 0
-532 542 0
-536 543 0
-365 -492 541 0
-365 -528 542 0
-365 -532 543 0
-365 -536 544 0
-380 -492 542 0
-380 -528 543 0
-380 -532 544 0
-384 -492 543 0
-384 -528 544 0
-378 545 0
-382 546 0
-386 547 0
-526 545 0
-530 546 0
-534 547 0
-538 548 0
-378 -526 546 0
-378 -530 547 0
-378 -534 548 0
-382 -526 547 0
-382 -530 548 0
-386 -526 548 0
-541 549 0
-545 549 0
-541 -545 550 0
-542 551 0
-546 551 0
-542 -546 552 0
-543 553 0
-547 553 0
-543 -547 554 0
-544 555 0
-548 555 0
-544 -548 556 0
-377 557 0
-381 558 0
-385 559 0
-525 557 0
-529 558 0
-533 559 0
-537 560 0
-377 -525 558 0
-377 -529 559 0
-377 -533 560 0
-377 -537 561 0
-381 -525 559 0
-381 -529 560 0
-381 -533 561 0
-385 -525 560 0
-385 -529 561 0
-379 562 0
-383 563 0
-376 564 0
-527 562 0
-531 563 0
-535 564 0
-539 565 0
-379 -527 563 0
-379 -531 564 0
-379 -535 565 0
-383 -527 564 0
-383 -531 565 0
-376 -527 565 0
-558 566 0
-562 566 0
-558 -562 567 0
-559 568 0
-563 568 0
-559 -563 569 0
-560 570 0
-564 570 0
-560 -564 571 0
-561 572 0
-565 572 0
-549 573 0
-557 573 0
-549 -557 574 0
-550 575 0
-566 575 0
-550 -566 576 0
-551 577 0
-567 577 0
-551 -567 578 0
-552 579 0
-568 579 0
-552 -568 580 0
-553 581 0
-569 581 0
-553 -569 582 0
-554 583 0
-570 583 0
-554 -570 584 0
-555 585 0
-571 585 0
-555 -571 586 0
-556 587 0
-572 587 0
-319 588 0
-334 589 0
-338 590 0
-540 588 0
-576 589 0
-580 590 0
-584 591 0
-319 -540 589 0
-319 -576 590 0
-319 -580 591 0
-319 -584 592 0
-334 -540 590 0
-334 -576 591 0
-334 -580 592 0
-338 -540 591 0
-338 -576 592 0
-332 593 0
-336 594 0
-340 595 0
-574 593 0
-578 594 0
-582 595 0
-586 596 0
-332 -574 594 0
-332 -578 595 0
-332 -582 596 0
-336 -574 595 0
-336 -578 596 0
-340 -574 596 0
-589 597 0
-593 597 0
-589 -593 598 0
-590 599 0
-594 599 0
-590 -594 600 0
-591 601 0
-595 601 0
-591 -595 602 0
-592 603 0
-596 603 0
-592 -596 604 0
-331 605 0
-335 606 0
-339 607 0
-573 605 0
-577 606 0
-581 607 0
-585 608 0
-331 -573 606 0
-331 -577 607 0
-331 -581 608 0
-331 -585 609 0
-335 -573 607 0
-335 -577 608 0
-335 -581 609 0
-339 -573 608 0
-339 -577 609 0
-333 610 0
-337 611 0
-330 612 0
-575 610 0
-579 611 0
-583 612 0
-587 613 0
-333 -575 611 0
-333 -579 612 0
-333 -583 613 0
-337 -575 612 0
-337 -579 613 0
-330 -575 613 0
-606 614 0
-610 614 0
-606 -610 615 0
-607 616 0
-611 616 0
-607 -611 617 0
-608 618 0
-612 618 0
-608 -612 619 0
-609 620 0
-613 620 0
-597 621 0
-605 621 0
-597 -605 622 0
-598 623 0
-614 623 0
-598 -614 624 0
-599 625 0
-615 625 0
-599 -615 626 0
-600 627 0
-616 627 0
-600 -616 628 0
-601 629 0
-617 629 0
-601 -617 630 0
-602 631 0
-618 631 0
-602 -618 632 0
-603 633 0
-619 633 0
-603 -619 634 0
-604 635 0
-620 635 0
-635 0
